RAW/D/fspd-mid/CON8-0.vrpspd_seed-6.out
857.1702	1.453	162.835
