RAW/D/fspd-mid/CON8-0.vrpspd_seed-6.sol
Route #1: 9 32 15 35
Route #2: 48 21 8 39 23 18
Route #3: 33 12 17 38 34
Route #4: 24 30 14 45
Route #5: 40 29 6 47 16 37
Route #6: 25 20 44 5 36 41
Route #7: 43 27 3 11 19 2 1 22
Route #8: 42 46 26 49 10 13 28
Route #9: 50 31 7 4
Cost 8571702.000000